MgB2                               
3.085
1.000000000  0.000000000  0.000000000
-0.50000000  0.866025403  0.000000000
0.000000000  0.000000000  1.142301458
Mg  B
1   2
Direct
0.000000000   0.000000000   0.000000000
0.333333333   0.666666667   0.500000000
0.666666667   0.333333333   0.500000000
 
