XCrySDen XSF file
1.0
        3.3460178375         0.0000000000         0.0000000000
       -1.6730089188         2.8977364488         0.0000000000
        0.0000000000         0.0000000000         6.0834622383
   Ta    S
    1    2
Direct
     0.000000000         0.000000000         0.000000000
     0.333332986         0.666666985         0.252799302
     0.666666985         0.333332986         0.747200727
